1676152
14,57,8,16,26,44,64,19,47,1,62,3,12,53,46,23,60,2,20,40,29,24,28,59,4,39,55,31,41,11,0,18,48,22,5,63,66,10,65,25,54,33,45,42,6,37,30,21,13,51,32,56,17,9,43,27,49,52,36,61,38,50,34,67,7,35,58,15
